(declare-fun X0 () Int)
(declare-fun X1 () Int)
(declare-fun X2 () Int)
(declare-fun X3 () Int)
(declare-fun X4 () Int)
(declare-fun X5 () Int)
(declare-fun X6 () Int)
(declare-fun X7 () Int)
(assert (<= (- X1 X0) 5))
(assert (>= (- X1 X0) 0))
(assert (<= (- X2 X0) 5))
(assert (>= (- X2 X0) 0))
(assert (<= (- X2 X1) 5))
(assert (>= (- X2 X1) 0))
(assert (<= (- X3 X0) 5))
(assert (>= (- X3 X0) 0))
(assert (<= (- X3 X1) 5))
(assert (>= (- X3 X1) 0))
(assert (<= (- X3 X2) 5))
(assert (>= (- X3 X2) 0))
(assert (<= (- X4 X0) 5))
(assert (>= (- X4 X0) 0))
(assert (<= (- X4 X1) 5))
(assert (>= (- X4 X1) 0))
(assert (<= (- X4 X2) 5))
(assert (>= (- X4 X2) 0))
(assert (<= (- X4 X3) 5))
(assert (>= (- X4 X3) 0))
(assert (<= (- X5 X0) 5))
(assert (>= (- X5 X0) 0))
(assert (<= (- X5 X1) 5))
(assert (>= (- X5 X1) 0))
(assert (<= (- X5 X2) 5))
(assert (>= (- X5 X2) 0))
(assert (<= (- X5 X3) 5))
(assert (>= (- X5 X3) 0))
(assert (<= (- X5 X4) 5))
(assert (>= (- X5 X4) 0))
(assert (<= (- X6 X0) 5))
(assert (>= (- X6 X0) 0))
(assert (<= (- X6 X1) 5))
(assert (>= (- X6 X1) 0))
(assert (<= (- X6 X2) 5))
(assert (>= (- X6 X2) 0))
(assert (<= (- X6 X3) 5))
(assert (>= (- X6 X3) 0))
(assert (<= (- X6 X4) 5))
(assert (>= (- X6 X4) 0))
(assert (<= (- X6 X5) 5))
(assert (>= (- X6 X5) 0))
(assert (<= (- X7 X0) 5))
(assert (>= (- X7 X0) 0))
(assert (<= (- X7 X1) 5))
(assert (>= (- X7 X1) 0))
(assert (<= (- X7 X2) 5))
(assert (>= (- X7 X2) 0))
(assert (<= (- X7 X3) 5))
(assert (>= (- X7 X3) 0))
(assert (<= (- X7 X4) 5))
(assert (>= (- X7 X4) 0))
(assert (<= (- X7 X5) 5))
(assert (>= (- X7 X5) 0))
(assert (<= (- X7 X6) 5))
(assert (>= (- X7 X6) 0))
(check-sat)
